solution status: time limit reached
objective value:                                  -63
x6                                                  1 	(obj:-1)
x7                                                  1 	(obj:-1)
x13                                                 1 	(obj:-1)
x18                                                 1 	(obj:-1)
x25                                                 1 	(obj:-1)
x36                                                 1 	(obj:-1)
x40                                                 1 	(obj:-1)
x44                                                 1 	(obj:-1)
x47                                                 1 	(obj:-1)
x54                                                 1 	(obj:-1)
x58                                                 1 	(obj:-1)
x67                                                 1 	(obj:-1)
x73                                                 1 	(obj:-1)
x84                                                 1 	(obj:-1)
x100                                                1 	(obj:-1)
x111                                                1 	(obj:-1)
x112                                                1 	(obj:-1)
x117                                                1 	(obj:-1)
x118                                                1 	(obj:-1)
x126                                                1 	(obj:-1)
x135                                                1 	(obj:-1)
x157                                                1 	(obj:-1)
x158                                                1 	(obj:-1)
x166                                                1 	(obj:-1)
x184                                                1 	(obj:-1)
x194                                                1 	(obj:-1)
x197                                                1 	(obj:-1)
x200                                                1 	(obj:-1)
x206                                                1 	(obj:-1)
x224                                                1 	(obj:-1)
x232                                                1 	(obj:-1)
x237                                                1 	(obj:-1)
x246                                                1 	(obj:-1)
x249                                                1 	(obj:-1)
x253                                                1 	(obj:-1)
x256                                                1 	(obj:-1)
x262                                                1 	(obj:-1)
x266                                                1 	(obj:-1)
x268                                                1 	(obj:-1)
x279                                                1 	(obj:-1)
x287                                                1 	(obj:-1)
x290                                                1 	(obj:-1)
x305                                                1 	(obj:-1)
x311                                                1 	(obj:-1)
x330                                                1 	(obj:-1)
x333                                                1 	(obj:-1)
x356                                                1 	(obj:-1)
x360                                                1 	(obj:-1)
x368                                                1 	(obj:-1)
x380                                                1 	(obj:-1)
x391                                                1 	(obj:-1)
x395                                                1 	(obj:-1)
x398                                                1 	(obj:-1)
x404                                                1 	(obj:-1)
x410                                                1 	(obj:-1)
x417                                                1 	(obj:-1)
x434                                                1 	(obj:-1)
x435                                                1 	(obj:-1)
x443                                                1 	(obj:-1)
x449                                                1 	(obj:-1)
x450                                                1 	(obj:-1)
x459                                                1 	(obj:-1)
x462                                                1 	(obj:-1)
